g3 0 1 0	# problem nvs24_changed
 10 10 1 10 0	# vars, constraints, objectives, ranges, eqns
 10 1	# nonlinear constraints, objectives
 0 0	# network constraints: nonlinear, linear
 10 10 10	# nonlinear vars in constraints, objectives, both
 0 0 0 1	# linear network variables; functions; arith, flags
 0 0 10 0 0	# discrete variables: binary, integer, nonlinear (b,c,o)
 100 10	# nonzeros in Jacobian, gradients
 0 0	# max name lengths: constraints, variables
 0 0 0 0 0	# common exprs: b,c,o,c1,o1
b
0 0 200
0 0 200
0 0 200
0 0 200
0 0 200
0 0 200
0 0 200
0 0 200
0 0 200
0 0 200
x10
0 100
1 100
2 100
3 100
4 100
5 100
6 100
7 100
8 100
9 100
r
0 -1930 1760000
0 -3140 2600000
0 -1600 3040000
0 -1260 3920000
0 -1430 2560000
0 -1020 3040000
0 -2860 2880000
0 -880 3280000
0 -700 3360000
0 -360 3360000
C0
o54
43
o2
n-9
o5
v0
n2
o16
o2
o2
n10
v0
v1
o2
n-8
o5
v1
n2
o2
n-5
o5
v2
n2
o16
o2
o2
n6
v2
v0
o16
o2
o2
n10
v2
v1
o2
n-7
o5
v3
n2
o16
o2
o2
n10
v3
v0
o16
o2
o2
n6
v3
v1
o16
o2
o2
n2
v3
v2
o16
o2
o2
n2
v4
v1
o2
n-7
o5
v4
n2
o16
o2
o2
n6
v5
v0
o16
o2
o2
n2
v5
v1
o16
o2
o2
n2
v5
v3
o2
n-5
o5
v5
n2
o2
o2
n6
v6
v0
o2
o2
n2
v6
v1
o2
o2
n4
v6
v2
o2
o2
n2
v6
v3
o16
o2
o2
n4
v6
v4
o2
o2
n4
v6
v5
o2
n-8
o5
v6
n2
o16
o2
o2
n2
v7
v0
o16
o2
o2
n6
v7
v1
o16
o2
o2
n2
v7
v2
o2
o2
n6
v7
v4
o16
o2
o2
n2
v7
v6
o2
n-6
o5
v7
n2
o2
o2
n2
v8
v2
o16
o2
o2
n4
v8
v3
o2
o2
n8
v8
v4
o2
o2
n4
v8
v5
o16
o2
o2
n6
v8
v7
o2
n-6
o5
v8
n2
o2
o2
n2
v9
v0
o2
o2
n2
v9
v1
o16
o2
o2
n2
v9
v3
o2
o2
n2
v9
v4
o16
o2
o2
n2
v9
v5
o16
o2
o2
n2
v9
v7
o16
o2
o2
n6
v9
v8
o2
n-8
o5
v9
n2
C1
o54
42
o2
n-6
o5
v0
n2
o16
o2
o2
n8
v0
v1
o2
n-6
o5
v1
n2
o2
n-4
o5
v2
n2
o16
o2
o2
n2
v2
v0
o16
o2
o2
n2
v2
v1
o2
n-8
o5
v3
n2
o2
o2
n2
v3
v0
o2
o2
n10
v3
v1
o16
o2
o2
n2
v4
v0
o16
o2
o2
n6
v4
v1
o2
o2
n6
v4
v3
o2
n7
o5
v4
n2
o16
o2
o2
n2
v5
v1
o2
o2
n8
v5
v2
o2
o2
n2
v5
v3
o16
o2
o2
n4
v5
v4
o2
n-8
o5
v5
n2
o16
o2
o2
n6
v6
v0
o16
o2
o2
n10
v6
v1
o16
o2
o2
n2
v6
v2
o2
o2
n10
v6
v3
o16
o2
o2
n10
v6
v4
o2
n-8
o5
v6
n2
o16
o2
o2
n2
v7
v0
o16
o2
o2
n4
v7
v1
o16
o2
o2
n2
v7
v2
o16
o2
o2
n8
v7
v4
o16
o2
o2
n8
v7
v6
o2
n-5
o5
v7
n2
o16
o2
o2
n2
v8
v0
o16
o2
o2
n2
v8
v1
o2
o2
n4
v8
v5
o2
o2
n2
v8
v6
o2
n-6
o5
v8
n2
o2
o2
n4
v9
v0
o16
o2
o2
n2
v9
v2
o2
o2
n4
v9
v3
o2
o2
n6
v9
v5
o16
o2
o2
n2
v9
v6
o16
o2
o2
n2
v9
v7
o2
n-6
o5
v9
n2
C2
o54
44
o2
n-9
o5
v0
n2
o2
n-6
o5
v1
n2
o2
n-8
o5
v2
n2
o2
o2
n2
v1
v0
o2
o2
n2
v2
v1
o2
n-6
o5
v3
n2
o2
o2
n4
v3
v0
o2
o2
n4
v3
v1
o16
o2
o2
n2
v3
v2
o16
o2
o2
n6
v4
v0
o16
o2
o2
n2
v4
v1
o2
o2
n4
v4
v3
o2
n6
o5
v4
n2
o2
o2
n2
v5
v0
o2
o2
n4
v5
v1
o16
o2
o2
n6
v5
v3
o16
o2
o2
n2
v5
v4
o2
n-5
o5
v5
n2
o2
o2
n2
v6
v1
o16
o2
o2
n4
v6
v2
o16
o2
o2
n6
v6
v4
o16
o2
o2
n4
v6
v5
o2
n-7
o5
v6
n2
o16
o2
o2
n2
v7
v0
o2
o2
n4
v7
v2
o2
o2
n2
v7
v3
o2
n-4
o5
v7
n2
o2
o2
n10
v8
v0
o2
o2
n6
v8
v1
o16
o2
o2
n4
v8
v2
o16
o2
o2
n10
v8
v3
o2
o2
n8
v8
v4
o16
o2
o2
n6
v8
v5
o16
o2
o2
n2
v8
v6
o2
n-8
o5
v8
n2
o16
o2
o2
n4
v9
v1
o2
o2
n2
v9
v2
o2
o2
n4
v9
v3
o2
o2
n6
v9
v4
o2
o2
n2
v9
v6
o16
o2
o2
n2
v9
v7
o2
o2
n2
v9
v8
o2
n-7
o5
v9
n2
o2
o2
n4
v9
v5
C3
o54
48
o2
n-8
o5
v0
n2
o2
n-4
o5
v1
n2
o2
n-9
o5
v2
n2
o2
n-7
o5
v3
n2
o16
o2
o2
n2
v1
v0
o16
o2
o2
n2
v2
v0
o16
o2
o2
n4
v2
v1
o2
o2
n6
v3
v0
o2
o2
n2
v3
v1
o16
o2
o2
n2
v3
v2
o16
o2
o2
n6
v4
v0
o16
o2
o2
n4
v4
v1
o16
o2
o2
n2
v4
v2
o2
o2
n6
v4
v3
o2
n6
o5
v4
n2
o16
o2
o2
n10
v5
v0
o16
o2
o2
n10
v5
v2
o2
o2
n4
v5
v3
o16
o2
o2
n2
v5
v4
o2
n-7
o5
v5
n2
o2
o2
n6
v6
v0
o16
o2
o2
n2
v6
v1
o16
o2
o2
n2
v6
v2
o2
o2
n6
v6
v4
o2
o2
n2
v6
v5
o2
n-6
o5
v6
n2
o2
o2
n4
v7
v0
o16
o2
o2
n4
v7
v1
o2
o2
n2
v7
v2
o16
o2
o2
n4
v7
v3
o16
o2
o2
n4
v7
v4
o2
o2
n8
v7
v5
o2
o2
n6
v7
v5
o2
n-8
o5
v7
n2
o16
o2
o2
n4
v8
v0
o2
o2
n4
v8
v1
o2
o2
n6
v8
v2
o16
o2
o2
n2
v8
v3
o2
o2
n2
v8
v5
o2
o2
n8
v8
v6
o16
o2
o2
n4
v8
v7
o2
n-10
o5
v8
n2
o2
o2
n8
v9
v0
o2
o2
n4
v9
v1
o2
o2
n2
v9
v2
o2
o2
n2
v9
v3
o2
o2
n4
v9
v5
o2
n-6
o5
v9
n2
C4
o54
45
o2
o2
n2
v1
v0
o2
n-4
o5
v0
n2
o2
n-5
o5
v1
n2
o16
o2
o2
n6
v2
v0
o2
n-8
o5
v2
n2
o16
o2
o2
n2
v3
v0
o2
o2
n6
v3
v1
o16
o2
o2
n2
v3
v2
o2
n-6
o5
v3
n2
o16
o2
o2
n4
v4
v0
o2
o2
n2
v4
v1
o16
o2
o2
n6
v4
v2
o16
o2
o2
n8
v4
v3
o2
n-7
o5
v4
n2
o2
o2
n4
v5
v0
o16
o2
o2
n4
v5
v1
o2
o2
n6
v5
v2
o2
o2
n4
v5
v4
o2
n-7
o5
v5
n2
o2
o2
n4
v6
v0
o16
o2
o2
n4
v6
v1
o16
o2
o2
n4
v6
v2
o2
o2
n4
v6
v3
o2
o2
n4
v6
v4
o2
o2
n4
v6
v5
o2
n-8
o5
v6
n2
o16
o2
o2
n2
v7
v0
o2
o2
n4
v7
v3
o2
o2
n2
v7
v5
o2
o2
n2
v7
v6
o2
n-4
o5
v7
n2
o16
o2
o2
n2
v8
v1
o2
o2
n4
v8
v2
o2
o2
n4
v8
v3
o16
o2
o2
n2
v8
v4
o2
o2
n2
v8
v5
o2
o2
n6
v8
v6
o16
o2
o2
n6
v8
v7
o2
n-7
o5
v8
n2
o16
o2
o2
n6
v9
v2
o16
o2
o2
n2
v9
v3
o16
o2
o2
n4
v9
v4
o16
o2
o2
n4
v9
v8
o2
n-8
o5
v9
n2
o2
o2
n2
v9
v7
C5
o54
47
o2
o2
n2
v1
v0
o2
n-7
o5
v0
n2
o2
n-7
o5
v1
n2
o16
o2
o2
n6
v2
v0
o16
o2
o2
n2
v2
v1
o2
n-6
o5
v2
n2
o16
o2
o2
n2
v3
v0
o2
o2
n2
v3
v1
o16
o2
o2
n2
v3
v2
o2
n-5
o5
v3
n2
o16
o2
o2
n2
v4
v0
o16
o2
o2
n4
v4
v2
o2
o2
n2
v4
v3
o2
n-5
o5
v4
n2
o2
o2
n2
v5
v0
o16
o2
o2
n4
v5
v1
o2
o2
n4
v5
v2
o2
o2
n2
v5
v3
o2
o2
n6
v5
v4
o2
n-9
o5
v5
n2
o2
o2
n4
v6
v1
o16
o2
o2
n4
v6
v2
o2
o2
n4
v6
v3
o16
o2
o2
n4
v6
v4
o2
o2
n8
v6
v5
o2
n-6
o5
v6
n2
o2
o2
n4
v7
v0
o2
o2
n8
v7
v1
o2
o2
n2
v7
v2
o16
o2
o2
n4
v7
v3
o16
o2
o2
n2
v7
v4
o2
o2
n4
v7
v5
o2
n-9
o5
v7
n2
o16
o2
o2
n4
v8
v0
o2
o2
n2
v8
v3
o2
o2
n6
v8
v4
o16
o2
o2
n4
v8
v5
o16
o2
o2
n2
v8
v6
o2
o2
n2
v8
v7
o2
n-6
o5
v8
n2
o2
o2
n2
v9
v0
o16
o2
o2
n2
v9
v4
o16
o2
o2
n4
v9
v5
o2
o2
n2
v9
v6
o2
o2
n2
v9
v7
o2
o2
n6
v9
v8
o2
n-5
o5
v9
n2
C6
o54
45
o2
n-9
o5
v0
n2
o16
o2
o2
n4
v1
v0
o2
n-8
o5
v1
n2
o2
o2
n4
v2
v0
o2
o2
n2
v2
v1
o2
n-7
o5
v2
n2
o2
o2
n4
v3
v0
o2
o2
n4
v3
v2
o2
n-7
o5
v3
n2
o16
o2
o2
n2
v4
v0
o16
o2
o2
n12
v4
v1
o16
o2
o2
n4
v4
v2
o2
n-8
o5
v4
n2
o16
o2
o2
n8
v5
v0
o2
o2
n2
v5
v1
o16
o2
o2
n2
v5
v4
o2
n-6
o5
v5
n2
o16
o2
o2
n4
v6
v0
o16
o2
o2
n6
v6
v1
o16
o2
o2
n2
v6
v2
o2
o2
n10
v6
v3
o16
o2
o2
n2
v6
v4
o2
o2
n2
v6
v5
o2
n-7
o5
v6
n2
o16
o2
o2
n2
v7
v0
o2
o2
n2
v7
v1
o2
o2
n2
v7
v2
o2
o2
n2
v7
v3
o16
o2
o2
n6
v7
v5
o16
o2
o2
n2
v7
v6
o2
n-6
o5
v7
n2
o2
o2
n4
v8
v0
o2
o2
n2
v8
v1
o2
o2
n4
v8
v2
o2
o2
n4
v8
v3
o2
o2
n2
v8
v4
o16
o2
o2
n2
v8
v5
o2
n-9
o5
v8
n2
o2
o2
n6
v9
v0
o16
o2
o2
n6
v9
v2
o2
o2
n10
v9
v3
o2
o2
n6
v9
v5
o16
o2
o2
n8
v9
v6
o16
o2
o2
n4
v9
v8
o2
n-8
o5
v9
n2
C7
o54
48
o2
o2
n4
v1
v0
o2
n-7
o5
v0
n2
o2
n-8
o5
v1
n2
o2
o2
n4
v2
v0
o2
n-8
o5
v2
n2
o2
o2
n4
v3
v0
o2
o2
n8
v3
v1
o16
o2
o2
n6
v3
v2
o2
n-7
o5
v3
n2
o16
o2
o2
n2
v4
v1
o2
o2
n2
v4
v3
o2
n-5
o5
v4
n2
o16
o2
o2
n2
v5
v0
o16
o2
o2
n2
v5
v1
o2
o2
n4
v5
v3
o16
o2
o2
n4
v5
v4
o2
n-7
o5
v5
n2
o16
o2
o2
n2
v6
v0
o2
o2
n8
v6
v1
o16
o2
o2
n2
v6
v2
o16
o2
o2
n2
v6
v3
o2
o2
n6
v6
v4
o2
o2
n2
v6
v5
o2
n-7
o5
v6
n2
o2
o2
n2
v7
v0
o16
o2
o2
n6
v7
v1
o2
o2
n6
v7
v2
o2
o2
n4
v7
v3
o2
o2
n2
v7
v4
o16
o2
o2
n4
v7
v5
o2
n-6
o5
v7
n2
o2
o2
n4
v8
v0
o16
o2
o2
n6
v8
v1
o2
o2
n2
v8
v2
o16
o2
o2
n2
v8
v3
o2
o2
n2
v8
v4
o2
o2
n6
v8
v5
o2
o2
n2
v8
v6
o16
o2
o2
n4
v8
v7
o2
n-6
o5
v8
n2
o16
o2
o2
n2
v9
v0
o16
o2
o2
n2
v9
v1
o16
o2
o2
n4
v9
v2
o2
o2
n4
v9
v4
o2
o2
n4
v9
v5
o2
o2
n2
v9
v7
o16
o2
o2
n4
v9
v8
o2
n-6
o5
v9
n2
C8
o54
46
o2
o2
n2
v1
v0
o2
n-4
o5
v0
n2
o2
n-7
o5
v1
n2
o2
o2
n8
v2
v0
o16
o2
o2
n4
v2
v1
o2
n-9
o5
v2
n2
o16
o2
o2
n2
v3
v0
o16
o2
o2
n4
v3
v1
o16
o2
o2
n2
v3
v2
o2
n-6
o5
v3
n2
o2
o2
n4
v4
v0
o2
o2
n2
v4
v1
o2
o2
n4
v4
v2
o2
o2
n6
v4
v3
o2
n-6
o5
v4
n2
o2
o2
n4
v5
v2
o16
o2
o2
n6
v5
v3
o2
n-7
o5
v5
n2
o16
o2
o2
n2
v6
v1
o16
o2
o2
n4
v6
v2
o2
o2
n4
v6
v4
o2
o2
n8
v6
v5
o2
n-7
o5
v6
n2
o2
o2
n2
v7
v1
o16
o2
o2
n4
v7
v2
o2
o2
n2
v7
v3
o2
o2
n2
v7
v4
o2
o2
n6
v7
v6
o2
n-7
o5
v7
n2
o2
o2
n4
v8
v0
o2
o2
n2
v8
v1
o16
o2
o2
n10
v8
v2
o2
o2
n2
v8
v4
o2
o2
n2
v8
v5
o16
o2
o2
n8
v8
v7
o2
n-6
o5
v8
n2
o2
o2
n2
v9
v0
o2
o2
n2
v9
v1
o2
o2
n4
v9
v2
o2
o2
n8
v9
v3
o16
o2
o2
n4
v9
v4
o16
o2
o2
n2
v9
v5
o2
o2
n2
v9
v6
o16
o2
o2
n2
v9
v7
o2
o2
n2
v9
v8
o2
n-8
o5
v9
n2
C9
o54
51
o2
o2
n6
v1
v0
o2
n-7
o5
v0
n2
o2
n-6
o5
v1
n2
o16
o2
o2
n10
v2
v0
o2
o2
n6
v2
v1
o2
n-8
o5
v2
n2
o2
o2
n4
v3
v0
o2
o2
n2
v3
v1
o2
o2
n2
v3
v2
o2
n-8
o5
v3
n2
o16
o2
o2
n2
v4
v0
o2
o2
n2
v4
v1
o2
o2
n8
v4
v3
o2
n-4
o5
v4
n2
o2
o2
n4
v5
v0
o2
o2
n2
v5
v2
o16
o2
o2
n4
v5
v3
o2
o2
n2
v5
v4
o2
n-2
o5
v5
n2
o16
o2
o2
n2
v6
v0
o2
o2
n2
v6
v1
o16
o2
o2
n4
v6
v2
o2
o2
n2
v6
v3
o2
o2
n2
v6
v4
o2
o2
n2
v6
v5
o2
n-6
o5
v6
n2
o16
o2
o2
n2
v7
v0
o2
o2
n2
v7
v1
o16
o2
o2
n6
v7
v2
o2
o2
n6
v7
v3
o16
o2
o2
n2
v7
v4
o2
o2
n2
v7
v5
o16
o2
o2
n4
v7
v6
o2
n-5
o5
v7
n2
o2
o2
n4
v8
v0
o16
o2
o2
n4
v8
v1
o16
o2
o2
n10
v8
v3
o2
o2
n6
v8
v4
o16
o2
o2
n2
v8
v5
o2
o2
n2
v8
v6
o2
o2
n4
v8
v7
o2
n-6
o5
v8
n2
o2
o2
n2
v9
v1
o16
o2
o2
n4
v9
v2
o2
o2
n2
v9
v3
o16
o2
o2
n2
v9
v4
o2
o2
n2
v9
v5
o2
o2
n4
v9
v6
o16
o2
o2
n6
v9
v7
o2
o2
n2
v9
v8
o2
n-7
o5
v9
n2
O0 0
o54
51
o2
n7
o5
v0
n2
o2
n6
o5
v1
n2
o2
n8
o5
v2
n2
o16
o2
o2
n6
v2
v0
o2
o2
n4
v2
v1
o2
n6
o5
v3
n2
o2
o2
n2
v3
v0
o2
o2
n2
v3
v2
o2
n7
o5
v4
n2
o16
o2
o2
n4
v4
v0
o16
o2
o2
n2
v4
v1
o16
o2
o2
n6
v4
v2
o2
n4
o5
v5
n2
o2
o2
n2
v5
v0
o16
o2
o2
n4
v5
v1
o16
o2
o2
n4
v5
v2
o16
o2
o2
n2
v5
v3
o2
o2
n6
v5
v4
o2
n6
o5
v6
n2
o16
o2
o2
n2
v6
v0
o16
o2
o2
n6
v6
v1
o16
o2
o2
n2
v6
v2
o2
o2
n4
v6
v4
o2
o2
n4
v6
v5
o2
n7
o5
v7
n2
o16
o2
o2
n4
v7
v0
o16
o2
o2
n2
v7
v1
o2
o2
n6
v7
v2
o2
o2
n4
v7
v3
o16
o2
o2
n4
v7
v4
o16
o2
o2
n2
v7
v5
o2
o2
n4
v7
v6
o2
n8
o5
v8
n2
o16
o2
o2
n2
v8
v0
o16
o2
o2
n4
v8
v1
o2
o2
n4
v8
v2
o2
o2
n4
v8
v3
o16
o2
o2
n4
v8
v4
o16
o2
o2
n4
v8
v5
o2
o2
n8
v8
v6
o2
o2
n4
v8
v7
o2
n6
o5
v9
n2
o16
o2
o2
n4
v9
v0
o16
o2
o2
n6
v9
v1
o2
o2
n2
v9
v2
o16
o2
o2
n4
v9
v3
o2
o2
n2
v9
v4
o2
o2
n2
v9
v5
o16
o2
o2
n2
v9
v6
o16
o2
o2
n4
v9
v7
o16
o2
o2
n2
v9
v8
k9
10
20
30
40
50
60
70
80
90
J0 10
0 0
1 0
2 0
3 0
4 0
5 0
6 0
7 0
8 0
9 0
J1 10
0 0
1 0
2 0
3 0
4 0
5 0
6 0
7 0
8 0
9 0
J2 10
0 0
1 0
2 0
3 0
4 0
5 0
6 0
7 0
8 0
9 0
J3 10
0 0
1 0
2 0
3 0
4 0
5 0
6 0
7 0
8 0
9 0
J4 10
0 0
1 0
2 0
3 0
4 0
5 0
6 0
7 0
8 0
9 0
J5 10
0 0
1 0
2 0
3 0
4 0
5 0
6 0
7 0
8 0
9 0
J6 10
0 0
1 0
2 0
3 0
4 0
5 0
6 0
7 0
8 0
9 0
J7 10
0 0
1 0
2 0
3 0
4 0
5 0
6 0
7 0
8 0
9 0
J8 10
0 0
1 0
2 0
3 0
4 0
5 0
6 0
7 0
8 0
9 0
J9 10
0 0
1 0
2 0
3 0
4 0
5 0
6 0
7 0
8 0
9 0
G0 10
0 37.6
1 19.6
2 -5.6
3 -26
4 -125
5 -79.6
6 -104.2
7 -4.6
8 -22.8
9 9
